
  32    4
  10   10   10   10

   0   0   0   0   0  16 2 4 8 9 10 11 22 23 24 25 26 27 28 29 30 31 
   6  10  10  10  10   1 3 
   3  10  10  10  10   5 18 17 16 15 5 
   8  10  10  10  10   3 21 20 19 
   2  10  10  10  10   1 6 
   1  10  10  10  10   1 7 
   8  10  10  10  10   1 12 
   3  10  10  10  10   1 14 
  10  10  10  10  10   1 14 
   5  10  10  10  10   1 13 
   4  10  10  10  10   1 13 
   3  10  10  10  10   1 32
   3  10  10  10  10   1 32
   4  10  10  10  10   1 32
  10  10  10  10  10   1 32
   6  10  10  10  10   1 32
   6  10  10  10  10   1 32
   9  10  10  10  10   1 32
  10  10  10  10  10   1 32
   5  10  10  10  10   1 32
   5  10  10  10  10   1 32
   5  10  10  10  10   1 32
   5  10  10  10  10   1 32
   2  10  10  10  10   1 32
   9  10  10  10  10   1 32
   1  10  10  10  10   1 32
   5  10  10  10  10   1 32
  10  10  10  10  10   1 32
   7  10  10  10  10   1 32
   4  10  10  10  10   1 32
   5  10  10  10  10   1 32
   0   0   0   0   0   0 
